p edge 57 158
e 10 2
e 12 3
e 13 6
e 13 9
e 13 11
e 14 4
e 14 10
e 14 11
e 15 4
e 15 12
e 15 13
e 16 1
e 16 10
e 17 1
e 17 3
e 17 13
e 19 2
e 19 12
e 20 13
e 21 12
e 21 19
e 22 1
e 22 6
e 22 20
e 23 16
e 23 18
e 26 20
e 27 1
e 27 8
e 27 20
e 27 24
e 28 24
e 29 19
e 29 26
e 30 8
e 30 10
e 30 15
e 30 18
e 30 24
e 31 1
e 31 11
e 31 12
e 32 3
e 32 6
e 32 22
e 32 28
e 33 9
e 33 16
e 34 5
e 34 9
e 34 13
e 34 19
e 34 22
e 34 23
e 34 28
e 35 5
e 35 12
e 35 13
e 35 29
e 35 30
e 35 32
e 36 9
e 36 10
e 36 22
e 36 23
e 36 28
e 36 31
e 37 1
e 37 8
e 37 10
e 37 21
e 37 25
e 37 36
e 38 11
e 38 18
e 39 1
e 39 3
e 39 13
e 39 24
e 40 14
e 41 2
e 41 15
e 41 30
e 41 33
e 41 37
e 41 39
e 42 2
e 42 23
e 42 36
e 43 30
e 43 42
e 44 4
e 44 7
e 44 18
e 44 36
e 44 40
e 45 7
e 45 9
e 45 13
e 45 17
e 45 32
e 45 33
e 46 7
e 46 39
e 46 41
e 47 26
e 47 32
e 47 41
e 48 14
e 48 18
e 48 43
e 49 10
e 49 37
e 49 39
e 49 40
e 49 44
e 49 47
e 50 11
e 50 39
e 50 41
e 50 44
e 51 13
e 51 15
e 51 23
e 51 32
e 52 17
e 52 26
e 53 12
e 53 37
e 53 48
e 53 51
e 54 6
e 54 8
e 54 24
e 54 26
e 54 40
e 54 45
e 55 2
e 55 3
e 55 32
e 55 34
e 55 37
e 55 41
e 55 42
e 55 43
e 55 50
e 55 54
e 56 2
e 56 16
e 56 18
e 56 19
e 56 24
e 57 8
e 57 14
e 57 18
e 57 20
e 57 51
e 57 53
